175
0 165 11 19 161 86 51 4 41 97 
47 152 166 157 85 111 84 83 164 133 
155 5 117 125 67 35 59 22 55 52 
64 76 146 144 13 139 131 98 36 101 
128 17 45 145 130 28 127 172 99 158 
10 108 74 43 34 75 38 96 170 2 
49 95 142 66 71 138 149 114 123 42 
16 33 173 132 80 69 168 143 120 37 
147 78 29 113 14 160 141 167 163 82 
153 119 162 100 31 135 53 3 44 104 
89 159 93 81 73 6 134 23 90 21 
54 116 8 68 60 126 156 92 24 115 
30 65 26 122 103 62 50 1 106 118 
72 91 63 136 27 46 56 32 48 70 
9 57 150 39 94 7 174 20 171 112 
40 107 140 109 121 148 87 25 88 12 
79 77 129 18 15 61 151 58 110 154 
169 105 102 124 137 
